c parity= 1 1 0 1 1 0 1 1 
c e= 0.125
p cnf 8 16
x 2 3 5 6 7 0
x -1 2 6 0
x -6 7 8 0
x 1 0
x 1 3 5 6 7 0
x 1 3 5 8 0
x 1 4 0
x 1 2 8 0
x -1 2 6 7 8 0
x 2 5 6 0
x -1 2 5 6 8 0
x -2 3 4 0
x 1 2 6 8 0
x -1 2 3 6 0
x 1 6 7 8 0
x -2 3 4 5 6 7 0
